BEGIN IONS
PEPMASS=707.4166969
CHARGE=1+
SOURCE_INSTRUMENT=QQQ-LC-ESI
FILENAME=BBQ78-U.mgf
SEQ=*..*
NOTES=Wolfender:PMA:N/A:N/A:Other:N/A
IONMODE=Positive
EXACTMASS=706.4094209
NAME=BBQ78-U M+H
SMILES=CCC(C12)CC3CC1(C(OC)=O)C4=C(C5=C(N4)C(C6CC(C7C(OC)=O)C(CN(C7CC8=C6NC9=CC=CC=C89)C)CC)=C(OC)C=C5)CCN2C3
INCHI=N/A
INCHIAUX=N/A
LIBRARYQUALITY=3
SCANS=1
130.0656743 0.603773848
339.2072531 2.009379309
587.3749871 0.6082444027
615.3699017 3.067864871
618.3695674 0.6471924328
620.3852175 0.4263234377
643.3648164 0.5526806463
645.3804664 0.4756349788
645.3804664 0.8698845715
646.364482 1.202498044
646.364482 1.163196109
647.3961165 6.559438657
648.3801321 1.463551842
657.3804664 0.5530270883
657.3804664 0.5372092444
664.3750467 0.6498213415
675.3910311 23.01325392
675.3910311 2.045010852
676.3750467 1.613965143
677.3702957 0.4587408916
677.3702957 0.4587408916
677.4066812 3.794954507
678.3906968 2.501249106
679.3859457 0.4209652851
680.4063468 0.6231221599
689.4066812 1.221408863
689.4066812 1.221408863
690.3906968 0.7989549438
691.3859457 0.9381787107
691.3859457 0.8784487275
707.4172459 38.62187631
41.03912516 4.312214391
43.05477522 2.207193939
313.191603 1.266749062
339.2072531 2.817226476
381.2178178 2.464364876
395.2334679 0.8955834019
510.275667 1.041571804
587.3749871 4.607438207
615.3699017 7.91251944
617.3855518 2.807093388
620.3124464 1.582491074
643.3648164 0.9547222777
645.3804664 1.866219639
645.3804664 1.853086894
646.364482 0.9937729079
646.364482 0.9552202887
647.3961165 15.20927964
651.3546456 1.199570175
657.3804664 1.325434077
657.3804664 1.168618658
662.3593966 1.167027033
675.3910311 14.07531446
675.3910311 1.621079243
676.3750467 2.798477244
677.4066812 1.429084209
678.3906968 1.573722003
689.4066812 2.383618943
689.4066812 2.383618943
690.3906968 3.223079504
691.3859457 1.324527686
707.4172459 10.58008012
51.0234751 1.738585552
55.05477522 1.956294919
166.1231891 1.434842183
279.1861237 2.206119293
291.1861237 1.449813105
317.1653883 1.547914442
349.191603 1.496168182
478.2494523 2.749907203
496.2600169 2.255737389
498.275667 1.807898257
510.275667 2.084994806
512.2913171 2.399348979
585.3593371 3.44838992
587.3749871 13.70496316
613.3542517 1.550174112
615.3699017 25.18832871
617.3855518 1.2233936
618.3695674 5.085765948
631.3648164 4.644997896
631.3648164 1.66519306
633.3440809 1.927026425
645.3804664 2.079956457
646.364482 2.627526333
646.364482 2.71958385
648.3801321 1.224017884
651.3546456 1.650564998
651.3910311 1.41361041
662.3593966 1.540469057
663.3546456 1.680820274
690.3906968 1.221062001
691.3859457 2.276531597
END IONS
